(set-logic HORN)
(declare-fun state (Int Int (Array Int Int) Int Int Int Bool Bool Int) Bool)
(assert (forall ((|E_3| Int) (|.y.9| Int) (|F_3| (Array Int Int)) (|I_3| Int) (|D_3| Int) (|A_3| Int) (|.loc.10| Bool) (|.loc.11| Bool) (|G_3| Int) (|.loc.18| Bool) (|.y.17| Int) (|.y.16| Int) (|.y.12| Int) (|.y.14| (Array Int Int)) (|.y.15| Int) (|.loc.19| Bool) (|.y.13| Int) (|.xtv.1| Int)) (=> (and (not .loc.10) (not .loc.11)) (state |E_3| |.y.9| |F_3| |I_3| |D_3| |A_3| |.loc.10| |.loc.11| |G_3|))))
(assert (forall ((|E_3| Int) (|.y.9| Int) (|F_3| (Array Int Int)) (|I_3| Int) (|D_3| Int) (|A_3| Int) (|.loc.10| Bool) (|.loc.11| Bool) (|G_3| Int) (|.loc.18| Bool) (|.y.17| Int) (|.y.16| Int) (|.y.12| Int) (|.y.14| (Array Int Int)) (|.y.15| Int) (|.loc.19| Bool) (|.y.13| Int) (|.xtv.1| Int)) (=> (and (state |E_3| |.y.9| |F_3| |I_3| |D_3| |A_3| |.loc.10| |.loc.11| |G_3|) (let ((.def_19 (not .loc.10))) (let ((.def_20 (not .loc.11))) (let ((.def_23 (<= I_3 (select F_3 G_3)))) (let ((.def_34 (<= E_3 0))) (let ((.def_35 (not .def_34))) (let ((.def_40 (or .def_34 (not (<= G_3 0))))) (let ((.def_41 (and (and (not (<= A_3 D_3)) (and (= (+ E_3 (+ D_3 (* (- 1) G_3))) 0) .def_35)) .def_40))) (let ((.def_51 (not .loc.18))) (let ((.def_55 (<= D_3 .y.9))) (let ((.def_58 (= E_3 .y.12))) (let ((.def_61 (= F_3 .y.14))) (let ((.def_64 (= I_3 .y.15))) (let ((.def_92 (not .loc.19))) (or (or (and (or (or (and (and .def_19 (and .loc.11 (and (not .def_23) .def_41))) .loc.18) (and (= D_3 .y.17) (and (and (and (and (and (= .y.16 0) (and .def_20 (and .loc.10 .def_51))) .def_55) .def_58) .def_61) .def_64))) (and (= A_3 .y.17) (and (= (+ D_3 (* (- 1) .y.16)) (- 1)) (and .def_64 (and .def_61 (and .def_58 (and .def_51 (and .def_19 (and .loc.11 (and .def_23 .def_41)))))))))) .loc.19) (and (not (<= .y.12 0)) (and (not (<= .y.16 0)) (and (= .y.13 0) (and (and .def_20 (and .def_19 .loc.18)) .def_92))))) (and (= D_3 .y.16) (and (not .def_55) (and (= (+ E_3 (+ .y.9 (* (- 1) G_3))) 0) (and (= .y.14 (store F_3 G_3 I_3)) (and (= (+ .y.9 (* (- 1) .y.13)) (- 1)) (and .def_92 (and .def_64 (and .def_58 (and .def_20 (and .loc.18 (and .loc.10 (and .def_35 .def_40))))))))))))))))))))))))))) (state |.y.12| |.y.13| |.y.14| |.y.15| |.y.16| |.y.17| |.loc.18| |.loc.19| |.xtv.1|))))
(assert (forall ((|E_3| Int) (|.y.9| Int) (|F_3| (Array Int Int)) (|I_3| Int) (|D_3| Int) (|A_3| Int) (|.loc.10| Bool) (|.loc.11| Bool) (|G_3| Int) (|.loc.18| Bool) (|.y.17| Int) (|.y.16| Int) (|.y.12| Int) (|.y.14| (Array Int Int)) (|.y.15| Int) (|.loc.19| Bool) (|.y.13| Int) (|.xtv.1| Int)) (=> (state |E_3| |.y.9| |F_3| |I_3| |D_3| |A_3| |.loc.10| |.loc.11| |G_3|) (not (and .loc.10 .loc.11)))))
(check-sat)
